3 
4  52 
5  14 30 44 53 58 
6  03 08 14 18 24 28 33 38 43 48 53 59 
7  03 09 13 18 23 28 33 38 43 48 53 58 
8  03 08 13 18 23 28 33 38 43 48 53 
9  01 08 16 23 31 39 47 54 
10  02 11 18 26 33 41 48 56 
11  03 11 18 26 33 41 48 56 
12  03 11 18 26 33 41 48 56 
13  03 11 18 26 33 41 48 56 
14  03 11 18 27 34 39 44 49 54 59 
15  03 09 14 18 24 29 33 39 44 48 54 59 
16  03 09 14 18 24 29 33 39 44 48 54 59 
17  03 09 14 18 24 29 33 39 44 48 54 59 
18  03 09 14 18 24 29 33 39 44 53 58 
19  05 12 20 28 35 44 53 
20  02 10 17 24 32 40 47 55 
21  02 10 17 25 32 44 59 
22  14 29 44 59 
23  14 
0 
